qbf_easy_train/easy_4889_SAT.qdimacs
p cnf 20 47
a 3 11 13 0
e 1 2 4 5 6 7 8 9 10 12 14 15 16 17 18 19 20 0
-5 -3 0
-5 4 0
3 -4 5 0
-6 2 0
-6 -5 0
-2 5 6 0
-7 -1 0
-7 6 0
1 -6 7 0
-4 -8 -9 0
4 8 -9 0
-4 8 9 0
4 -8 9 0
10 -7 0
10 -9 0
7 9 -10 0
11 -3 -12 0
-11 3 -12 0
11 3 12 0
-11 -3 12 0
14 -12 0
14 13 0
12 -13 -14 0
-2 4 -15 0
2 -4 -15 0
-2 -4 15 0
2 4 15 0
17 16 0
17 13 0
-16 -13 -17 0
-15 -17 -18 0
15 17 -18 0
-15 17 18 0
15 -17 18 0
14 -18 -19 0
-14 18 -19 0
14 18 19 0
-14 -18 19 0
-10 -19 -20 0
10 19 -20 0
-10 19 20 0
10 -19 20 0
-1 -8 -15 -11 0
-3 -20 1 0
7 10 4 -1 -9 -13 0
-16 -5 -10 0
20 0
