sat_easy_train/easy_4889_SAT.dimacs
p cnf 113 374
-2 3 -4 0
2 -3 -4 0
-2 -3 4 0
2 3 4 0
-5 1 0
-5 4 0
-1 -4 5 0
-5 6 -7 0
5 -6 -7 0
-5 -6 7 0
5 6 7 0
7 8 -9 0
-7 -8 -9 0
7 -8 9 0
-7 8 9 0
-12 10 0
-12 -11 0
-10 11 12 0
9 -12 -13 0
-9 12 -13 0
9 12 13 0
-9 -12 13 0
7 -14 -15 0
-7 14 -15 0
7 14 15 0
-7 -14 15 0
-14 -16 -17 0
14 16 -17 0
-14 16 17 0
14 -16 17 0
-15 -17 -18 0
15 17 -18 0
-15 17 18 0
15 -17 18 0
19 13 0
19 18 0
-13 -18 -19 0
-21 -8 0
-21 20 0
8 -20 21 0
-22 -4 -23 0
22 4 -23 0
-22 4 23 0
22 -4 23 0
24 23 0
24 5 0
-23 -5 -24 0
25 -21 0
25 24 0
21 -24 -25 0
20 -25 -26 0
-20 25 -26 0
20 25 26 0
-20 -25 26 0
-28 27 0
-28 -1 0
-27 1 28 0
-30 -28 0
-30 -29 0
28 29 30 0
-32 31 0
-32 3 0
-31 -3 32 0
-33 6 0
-33 -16 0
-6 16 33 0
-34 32 0
-34 -33 0
-32 33 34 0
35 30 0
35 34 0
-30 -34 -35 0
-36 27 0
-36 1 0
-27 -1 36 0
37 35 0
37 36 0
-35 -36 -37 0
38 -26 0
38 37 0
26 -37 -38 0
29 -25 -39 0
-29 25 -39 0
29 25 39 0
-29 -25 39 0
40 -33 0
40 11 0
33 -11 -40 0
4 22 -41 0
-4 -22 -41 0
4 -22 41 0
-4 22 41 0
41 42 0
-41 42 0
-10 -42 -43 0
10 42 -43 0
-10 42 43 0
10 -42 43 0
44 40 0
44 43 0
-40 -43 -44 0
-45 39 0
-45 -44 0
-39 44 45 0
-38 45 -46 0
38 -45 -46 0
-38 -45 46 0
38 45 46 0
-19 -46 -47 0
19 46 -47 0
-19 46 47 0
19 -46 47 0
20 -7 -48 0
-20 7 -48 0
20 7 48 0
-20 -7 48 0
49 -41 0
49 10 0
41 -10 -49 0
-50 48 0
-50 -49 0
-48 49 50 0
52 29 0
52 -51 0
-29 51 -52 0
-2 52 -53 0
2 -52 -53 0
-2 -52 53 0
2 52 53 0
50 53 -54 0
-50 -53 -54 0
50 -53 54 0
-50 53 54 0
-55 29 0
-55 11 0
-29 -11 55 0
14 55 -56 0
-14 -55 -56 0
14 -55 56 0
-14 55 56 0
57 32 0
57 28 0
-32 -28 -57 0
58 -6 0
58 -9 0
6 9 -58 0
-59 -22 0
-59 -2 0
22 2 59 0
60 58 0
60 59 0
-58 -59 -60 0
61 57 0
61 60 0
-57 -60 -61 0
-62 56 0
-62 61 0
-56 -61 62 0
-63 -3 0
-63 22 0
3 -22 63 0
64 63 0
64 -16 0
-63 16 -64 0
-65 -55 0
-65 52 0
55 -52 65 0
66 22 0
66 -10 0
-22 10 -66 0
65 66 -67 0
-65 -66 -67 0
65 -66 67 0
-65 66 67 0
64 -67 -68 0
-64 67 -68 0
64 67 68 0
-64 -67 68 0
62 -68 -69 0
-62 68 -69 0
62 68 69 0
-62 -68 69 0
70 9 0
70 -22 0
-9 22 -70 0
72 71 0
72 -7 0
-71 7 -72 0
-73 1 0
-73 -2 0
-1 2 73 0
74 -73 0
74 52 0
73 -52 -74 0
75 -72 0
75 74 0
72 -74 -75 0
58 -30 -76 0
-58 30 -76 0
58 30 76 0
-58 -30 76 0
-51 57 -77 0
51 -57 -77 0
-51 -57 77 0
51 57 77 0
-76 -77 -78 0
76 77 -78 0
-76 77 78 0
76 -77 78 0
-79 -76 0
-79 -73 0
76 73 79 0
-78 -79 -80 0
78 79 -80 0
-78 79 80 0
78 -79 80 0
81 -75 0
81 80 0
75 -80 -81 0
-82 70 0
-82 -81 0
-70 81 82 0
-83 -69 0
-83 82 0
69 -82 83 0
-2 32 -84 0
2 -32 -84 0
-2 -32 84 0
2 32 84 0
-85 73 0
-85 57 0
-73 -57 85 0
86 84 0
86 85 0
-84 -85 -86 0
87 -22 0
87 -77 0
22 77 -87 0
-88 24 0
-88 -51 0
-24 51 88 0
-89 87 0
-89 -88 0
-87 88 89 0
-90 86 0
-90 89 0
-86 -89 90 0
-21 -51 -91 0
21 51 -91 0
-21 51 91 0
21 -51 91 0
-92 7 0
-92 16 0
-7 -16 92 0
91 92 -93 0
-91 -92 -93 0
91 -92 93 0
-91 92 93 0
-94 -90 0
-94 93 0
90 -93 94 0
95 15 0
95 -15 0
-1 -49 -96 0
1 49 -96 0
-1 49 96 0
1 -49 96 0
-97 -95 0
-97 -96 0
95 96 97 0
98 24 0
98 73 0
-24 -73 -98 0
51 33 -99 0
-51 -33 -99 0
51 -33 99 0
-51 33 99 0
17 99 -100 0
-17 -99 -100 0
17 -99 100 0
-17 99 100 0
98 100 -101 0
-98 -100 -101 0
98 -100 101 0
-98 100 101 0
102 -97 0
102 -101 0
97 101 -102 0
-94 -102 -103 0
94 102 -103 0
-94 102 103 0
94 -102 103 0
-104 83 0
-104 103 0
-83 -103 104 0
105 54 0
105 104 0
-54 -104 -105 0
106 -10 0
106 2 0
10 -2 -106 0
-107 -106 0
-107 -2 0
106 2 107 0
-17 21 -108 0
17 -21 -108 0
-17 -21 108 0
17 21 108 0
-107 -108 -109 0
107 108 -109 0
-107 108 109 0
107 -108 109 0
-110 -105 0
-110 109 0
105 -109 110 0
111 9 0
111 -1 0
-9 1 -111 0
-112 110 0
-112 -111 0
-110 111 112 0
113 -47 0
113 -112 0
47 112 -113 0
65 -37 -52 0
110 -85 -55 106 34 98 0
-52 57 107 0
-65 64 -36 50 -4 -66 0
102 -66 96 -109 -32 -73 0
-105 -110 68 0
-106 108 19 43 96 0
109 22 93 -67 0
74 -66 -14 0
-61 9 0
-30 76 0
-92 -63 -37 -1 -60 0
17 -51 102 0
11 33 93 12 -78 0
-51 112 82 -50 21 0
56 -4 -6 106 -25 -26 0
-79 -1 -43 -47 0
-59 67 77 39 92 0
-38 -97 -21 0
102 -84 3 91 -37 0
69 112 0
-62 -53 0
-43 -28 -91 0
18 15 -2 0
-96 22 -98 0
41 99 0
98 -7 69 89 -50 0
74 10 -15 42 100 0
-6 -20 -44 0
4 -68 0
-94 -21 -11 64 0
-39 -113 0
-41 -34 108 -23 0
74 -108 32 0
86 21 0
-72 110 -11 0
-90 45 -107 0
4 -105 81 0
38 91 49 99 0
79 -51 0
-36 -60 1 -66 0
84 101 23 0
-109 3 48 31 0
86 -53 -106 99 0
-71 68 10 -62 0
-91 103 -100 0
16 -57 53 0
-55 84 19 -98 36 82 0
-74 -69 -50 0
113 0
